4983
4969
4963
4936
4958
4952
4824
4944
4962
4868
4949
4870
4948
4884
4888
4893
4988
4886
4844
5005
4957
4898
4984
4995
5030
4899
4976
4931
4950
4887
4948
4948
4853
4948
4935
4954
4943
4948
4971
4965
4971
4987
4927
5007
4922
4987
4966
4771
4887
4899
4957
4910
4928
4969
4914
5034
4976
4926
4897
4915
4890
4928
4960
4965
4939
4977
4959
4893
4989
4923
4979
4953
4976
4959
4991
4943
4965
4943
4886
4998
4962
4956
4956
4987
4960
4928
4902
4991
4970
4976
4972
4931
4928
5008
4974
4946
4981
4874
4928
4950
